c FILE /home/rafael/Documents/HappySet/MIHS/inputs/happygen/output/graph_d_regular_k2_p0.5_v100_20241127_084004.txt
c SOURCE This is a d-regular graph formed for the happy graph colouring problem.
c DESCRIPTION It was generated using the problem generator of Rhyd Lewis
c
c GRAPH STATS
c Seed                             = -909541348
c Number of Nodes                  = 100
c Number of colours k              = 2
c Number of pre-assignments        = 50
c Degree of all vertices           = 6
c Density                          = 0.0606061
c 
c The degrees of nodes 1 to 100, respectively, are as follows 
c [6, 6, 6, 6, 6, 6, 6, 6, 6, 6, 6, 6, 6, 6, 6, 6, 6, 6, 6, 6, 6, 6, 6, 6, 6, 6, 
c  6, 6, 6, 6, 6, 6, 6, 6, 6, 6, 6, 6, 6, 6, 6, 6, 6, 6, 6, 6, 6, 6, 6, 6, 6, 
c  6, 6, 6, 6, 6, 6, 6, 6, 6, 6, 6, 6, 6, 6, 6, 6, 6, 6, 6, 6, 6, 6, 6, 6, 6, 
c  6, 6, 6, 6, 6, 6, 6, 6, 6, 6, 6, 6, 6, 6, 6, 6, 6, 6, 6, 6, 6, 6, 6, 6] 
c  
p edge 100 300 2
e 1 16
e 1 33
e 1 53
e 1 71
e 1 74
e 1 98
e 2 21
e 2 32
e 2 41
e 2 44
e 2 59
e 2 76
e 3 16
e 3 23
e 3 27
e 3 31
e 3 46
e 3 99
e 4 5
e 4 15
e 4 29
e 4 68
e 4 79
e 4 100
e 5 37
e 5 39
e 5 53
e 5 75
e 5 95
e 6 38
e 6 46
e 6 47
e 6 49
e 6 91
e 6 100
e 7 25
e 7 32
e 7 49
e 7 55
e 7 59
e 7 84
e 8 48
e 8 49
e 8 69
e 8 86
e 8 93
e 8 94
e 9 15
e 9 41
e 9 48
e 9 53
e 9 64
e 9 75
e 10 15
e 10 42
e 10 69
e 10 87
e 10 89
e 10 99
e 11 18
e 11 32
e 11 42
e 11 46
e 11 51
e 11 66
e 12 19
e 12 39
e 12 40
e 12 52
e 12 58
e 12 67
e 13 22
e 13 38
e 13 56
e 13 89
e 13 94
e 13 100
e 14 61
e 14 65
e 14 71
e 14 83
e 14 94
e 14 98
e 15 24
e 15 90
e 15 93
e 16 18
e 16 30
e 16 67
e 16 77
e 17 24
e 17 37
e 17 60
e 17 65
e 17 68
e 17 94
e 18 38
e 18 40
e 18 42
e 18 80
e 19 28
e 19 39
e 19 52
e 19 70
e 19 85
e 20 41
e 20 66
e 20 74
e 20 83
e 20 89
e 20 90
e 21 48
e 21 50
e 21 72
e 21 88
e 21 99
e 22 23
e 22 50
e 22 72
e 22 75
e 22 81
e 23 27
e 23 57
e 23 79
e 23 81
e 24 48
e 24 54
e 24 73
e 24 82
e 25 30
e 25 31
e 25 48
e 25 70
e 25 97
e 26 36
e 26 49
e 26 57
e 26 71
e 26 84
e 26 90
e 27 43
e 27 92
e 27 95
e 27 98
e 28 33
e 28 55
e 28 67
e 28 75
e 28 87
e 29 35
e 29 36
e 29 63
e 29 68
e 29 75
e 30 34
e 30 39
e 30 59
e 30 88
e 31 50
e 31 60
e 31 74
e 31 94
e 32 33
e 32 57
e 32 79
e 33 40
e 33 51
e 33 55
e 34 37
e 34 59
e 34 69
e 34 73
e 34 96
e 35 40
e 35 42
e 35 45
e 35 73
e 35 75
e 36 63
e 36 71
e 36 73
e 36 78
e 37 56
e 37 59
e 37 97
e 38 70
e 38 88
e 38 93
e 39 76
e 39 82
e 40 96
e 40 98
e 41 66
e 41 68
e 41 96
e 42 58
e 42 64
e 43 47
e 43 61
e 43 82
e 43 89
e 43 92
e 44 54
e 44 61
e 44 62
e 44 76
e 44 77
e 45 55
e 45 72
e 45 81
e 45 87
e 45 91
e 46 66
e 46 83
e 46 95
e 47 54
e 47 61
e 47 74
e 47 82
e 48 65
e 49 83
e 49 96
e 50 83
e 50 85
e 50 97
e 51 55
e 51 82
e 51 84
e 51 90
e 52 58
e 52 80
e 52 90
e 52 100
e 53 63
e 53 91
e 53 96
e 54 70
e 54 76
e 54 82
e 55 84
e 56 57
e 56 87
e 56 94
e 56 97
e 57 59
e 57 92
e 58 70
e 58 86
e 58 87
e 60 67
e 60 80
e 60 81
e 60 89
e 61 62
e 61 85
e 62 70
e 62 78
e 62 90
e 62 92
e 63 69
e 63 77
e 63 86
e 64 65
e 64 72
e 64 77
e 64 78
e 65 71
e 65 93
e 66 81
e 66 88
e 67 99
e 67 100
e 68 69
e 68 79
e 69 92
e 71 92
e 72 74
e 72 78
e 73 86
e 73 88
e 74 81
e 76 85
e 76 95
e 77 87
e 77 97
e 78 86
e 78 89
e 79 91
e 79 100
e 80 84
e 80 86
e 80 91
e 83 85
e 84 98
e 85 91
e 88 93
e 93 96
e 95 98
e 95 99
e 97 99
n 2 1
n 3 1
n 4 2
n 7 2
n 9 2
n 10 2
n 14 2
n 17 2
n 23 1
n 28 2
n 30 1
n 33 2
n 36 1
n 37 2
n 38 1
n 39 1
n 40 2
n 42 2
n 43 2
n 44 1
n 47 2
n 48 2
n 49 2
n 50 2
n 53 2
n 55 2
n 57 1
n 58 2
n 62 1
n 66 1
n 67 2
n 68 2
n 69 2
n 72 1
n 73 1
n 75 2
n 78 1
n 80 2
n 81 1
n 83 2
n 84 2
n 85 2
n 87 2
n 88 1
n 90 1
n 91 2
n 93 1
n 97 2
n 98 2
n 100 2
